2818 259 390 905 2954 3723 1036 1292 3981 526 3599 1552 1425 2961 1941 3862 1815 791 665 3099 1693 2846 415 2592 288 2337 36 2469 3238 1446 41 941 1967 3761 1202 691 2739 820 2229 3639 3257 2106 187 1598 3518 3903 2497 3397 1351 201 2635 335 1871 1745 978 1490 2130 1110 2903 858 3036 476 2398 3679 2659 1637 2278 3558 3302 2790 742 3175 104 3821 3950 1774 1134 495 2545 3698 1395 1271 3063 3449 633 1657 123 2172 2684 1917 2429 